id: 494
name: gen4
group: meszaros/problematic
method: 2

Gurobi 7.0.2 (linux64, Matlab) logging started Mon Mar 26 10:11:09 2018


Gurobi 7.0.2 (linux64) logging started Mon Mar 26 10:11:09 2018

Optimize a model with 1537 rows, 4297 columns and 107102 nonzeros
Coefficient statistics:
  Matrix range     [5e-08, 1e+00]
  Objective range  [1e+00, 1e+00]
  Bounds range     [0e+00, 0e+00]
  RHS range        [5e-02, 6e+01]
Presolve removed 62 rows and 124 columns
Presolve time: 0.03s
Presolved: 1475 rows, 4173 columns, 104236 nonzeros

Ordering time: 0.00s

Barrier statistics:
 AA' NZ     : 6.822e+05
 Factor NZ  : 1.089e+06 (roughly 10 MBytes of memory)
 Factor Ops : 1.071e+09 (less than 1 second per iteration)
 Threads    : 4

                  Objective                Residual
Iter       Primal          Dual         Primal    Dual     Compl     Time
   0   1.17378867e+04  0.00000000e+00  1.47e+03 0.00e+00  4.05e+00     0s
   1   1.05160192e+03 -1.74644424e+02  1.31e+02 2.66e-15  4.93e-01     0s
   2   1.12686491e+01 -1.04626976e+01  1.35e+00 4.44e-15  7.03e-03     0s
   3   3.67586056e-01 -2.60830001e-01  2.50e-03 3.55e-15  1.82e-04     0s
   4   4.48620393e-02 -6.66042605e-04  3.75e-05 3.55e-15  1.10e-05     0s
   5   7.97609893e-05 -2.15980810e-06  2.95e-08 1.78e-15  1.97e-08     0s
   6   3.50768315e-05 -2.07861850e-09  1.08e-06 1.78e-15  8.41e-09     0s
   7   3.50768300e-05 -5.76885819e-07  2.08e-06 1.89e-15  8.55e-09     0s
   8   3.21007827e-05 -5.81068135e-07  2.19e-06 1.78e-15  7.85e-09     0s
   9   1.78545049e-05 -1.14388220e-07  1.40e-06 1.78e-15  4.32e-09     0s
  10   7.51443590e-07 -7.06648667e-08  6.94e-07 1.78e-15  2.05e-10     0s
  11   1.30371577e-08  1.27648967e-08  1.46e-06 1.78e-15  4.58e-12     0s
  12   1.16388208e-08  1.81609274e-08  3.32e-06 1.78e-15  2.89e-12     0s
  13   3.44077771e-09  1.81792487e-08  5.28e-06 1.78e-15  8.02e-13     0s
  14   3.55254316e-09  1.79761275e-08  9.43e-06 1.78e-15  7.13e-13     0s
  15   1.25739414e-11  1.79983377e-08  4.47e-06 1.78e-15  8.81e-16     0s
  16   9.32610880e-12  1.80112767e-08  2.31e-06 2.66e-15  6.12e-16     0s
  17   7.89488435e-12  1.80239811e-08  4.63e-06 1.78e-15  5.21e-16     0s
  18   5.52898064e-12  1.80366787e-08  8.54e-06 1.78e-15  3.67e-16     0s
  19   2.39117969e-12  1.80493712e-08  1.39e-05 1.78e-15  1.59e-16     1s
  20   1.90989528e-13  1.80747241e-08  1.73e-05 1.78e-15  1.17e-17     1s

Barrier solved model in 20 iterations and 0.53 seconds
Optimal objective 9.32610880e-12

Crossover log...

       0 DPushes remaining with DInf 3.4661378e-11                 2s

       0 PPushes remaining with PInf 0.0000000e+00                 2s

  Push phase complete: Pinf 0.0000000e+00, Dinf 3.4661378e-11      2s

Iteration    Objective       Primal Inf.    Dual Inf.      Time
     991    1.2251461e-07   0.000000e+00   0.000000e+00      2s
     991    1.2251302e-07   0.000000e+00   0.000000e+00      2s

Solved in 991 iterations and 1.85 seconds
Optimal objective  1.225130233e-07
status: OPTIMAL
